p edge 516 1188
v 1 2
v 2 3
v 3 4
v 4 5
v 5 6
v 6 7
v 7 8
v 8 9
v 9 10
v 10 11
v 11 12
v 12 13
v 13 14
v 14 15
v 15 16
v 16 17
v 17 18
v 18 19
v 19 20
v 20 21
v 21 22
v 22 23
v 23 24
v 24 25
v 25 26
v 26 27
v 27 28
v 28 29
v 29 30
v 30 31
v 31 32
v 32 33
v 33 34
v 34 35
v 35 36
v 36 37
v 37 38
v 38 39
v 39 40
v 40 41
v 41 42
v 42 43
v 43 44
v 44 45
v 45 46
v 46 47
v 47 48
v 48 49
v 49 50
v 50 51
v 51 52
v 52 53
v 53 54
v 54 55
v 55 56
v 56 57
v 57 58
v 58 59
v 59 60
v 60 61
v 61 62
v 62 63
v 63 64
v 64 65
v 65 66
v 66 67
v 67 68
v 68 69
v 69 70
v 70 71
v 71 72
v 72 73
v 73 74
v 74 75
v 75 76
v 76 77
v 77 78
v 78 79
v 79 80
v 80 81
v 81 82
v 82 83
v 83 84
v 84 85
v 85 86
v 86 87
v 87 88
v 88 89
v 89 90
v 90 91
v 91 92
v 92 93
v 93 94
v 94 95
v 95 96
v 96 97
v 97 98
v 98 99
v 99 100
v 100 101
v 101 102
v 102 103
v 103 104
v 104 105
v 105 106
v 106 107
v 107 108
v 108 109
v 109 110
v 110 111
v 111 112
v 112 113
v 113 114
v 114 115
v 115 116
v 116 117
v 117 118
v 118 119
v 119 120
v 120 121
v 121 122
v 122 123
v 123 124
v 124 125
v 125 126
v 126 127
v 127 128
v 128 129
v 129 130
v 130 131
v 131 132
v 132 133
v 133 134
v 134 135
v 135 136
v 136 137
v 137 138
v 138 139
v 139 140
v 140 141
v 141 142
v 142 143
v 143 144
v 144 145
v 145 146
v 146 147
v 147 148
v 148 149
v 149 150
v 150 151
v 151 152
v 152 153
v 153 154
v 154 155
v 155 156
v 156 157
v 157 158
v 158 159
v 159 160
v 160 161
v 161 162
v 162 163
v 163 164
v 164 165
v 165 166
v 166 167
v 167 168
v 168 169
v 169 170
v 170 171
v 171 172
v 172 173
v 173 174
v 174 175
v 175 176
v 176 177
v 177 178
v 178 179
v 179 180
v 180 181
v 181 182
v 182 183
v 183 184
v 184 185
v 185 186
v 186 187
v 187 188
v 188 189
v 189 190
v 190 191
v 191 192
v 192 193
v 193 194
v 194 195
v 195 196
v 196 197
v 197 198
v 198 199
v 199 0
v 200 1
v 201 2
v 202 3
v 203 4
v 204 5
v 205 6
v 206 7
v 207 8
v 208 9
v 209 10
v 210 11
v 211 12
v 212 13
v 213 14
v 214 15
v 215 16
v 216 17
v 217 18
v 218 19
v 219 20
v 220 21
v 221 22
v 222 23
v 223 24
v 224 25
v 225 26
v 226 27
v 227 28
v 228 29
v 229 30
v 230 31
v 231 32
v 232 33
v 233 34
v 234 35
v 235 36
v 236 37
v 237 38
v 238 39
v 239 40
v 240 41
v 241 42
v 242 43
v 243 44
v 244 45
v 245 46
v 246 47
v 247 48
v 248 49
v 249 50
v 250 51
v 251 52
v 252 53
v 253 54
v 254 55
v 255 56
v 256 57
v 257 58
v 258 59
v 259 60
v 260 61
v 261 62
v 262 63
v 263 64
v 264 65
v 265 66
v 266 67
v 267 68
v 268 69
v 269 70
v 270 71
v 271 72
v 272 73
v 273 74
v 274 75
v 275 76
v 276 77
v 277 78
v 278 79
v 279 80
v 280 81
v 281 82
v 282 83
v 283 84
v 284 85
v 285 86
v 286 87
v 287 88
v 288 89
v 289 90
v 290 91
v 291 92
v 292 93
v 293 94
v 294 95
v 295 96
v 296 97
v 297 98
v 298 99
v 299 100
v 300 101
v 301 102
v 302 103
v 303 104
v 304 105
v 305 106
v 306 107
v 307 108
v 308 109
v 309 110
v 310 111
v 311 112
v 312 113
v 313 114
v 314 115
v 315 116
v 316 117
v 317 118
v 318 119
v 319 120
v 320 121
v 321 122
v 322 123
v 323 124
v 324 125
v 325 126
v 326 127
v 327 128
v 328 129
v 329 130
v 330 131
v 331 132
v 332 133
v 333 134
v 334 135
v 335 136
v 336 137
v 337 138
v 338 139
v 339 140
v 340 141
v 341 142
v 342 143
v 343 144
v 344 145
v 345 146
v 346 147
v 347 148
v 348 149
v 349 150
v 350 151
v 351 152
v 352 153
v 353 154
v 354 155
v 355 156
v 356 157
v 357 158
v 358 159
v 359 160
v 360 161
v 361 162
v 362 163
v 363 164
v 364 165
v 365 166
v 366 167
v 367 168
v 368 169
v 369 170
v 370 171
v 371 172
v 372 173
v 373 174
v 374 175
v 375 176
v 376 177
v 377 178
v 378 179
v 379 180
v 380 181
v 381 182
v 382 183
v 383 184
v 384 185
v 385 186
v 386 187
v 387 188
v 388 189
v 389 190
v 390 191
v 391 192
v 392 193
v 393 194
v 394 195
v 395 196
v 396 197
v 397 198
v 398 199
v 399 0
v 400 1
v 401 2
v 402 3
v 403 4
v 404 5
v 405 6
v 406 7
v 407 8
v 408 9
v 409 10
v 410 11
v 411 12
v 412 13
v 413 14
v 414 15
v 415 16
v 416 17
v 417 18
v 418 19
v 419 20
v 420 21
v 421 22
v 422 23
v 423 24
v 424 25
v 425 26
v 426 27
v 427 28
v 428 29
v 429 30
v 430 31
v 431 32
v 432 33
v 433 34
v 434 35
v 435 36
v 436 37
v 437 38
v 438 39
v 439 40
v 440 41
v 441 42
v 442 43
v 443 44
v 444 45
v 445 46
v 446 47
v 447 48
v 448 49
v 449 50
v 450 51
v 451 52
v 452 53
v 453 54
v 454 55
v 455 56
v 456 57
v 457 58
v 458 59
v 459 60
v 460 61
v 461 62
v 462 63
v 463 64
v 464 65
v 465 66
v 466 67
v 467 68
v 468 69
v 469 70
v 470 71
v 471 72
v 472 73
v 473 74
v 474 75
v 475 76
v 476 77
v 477 78
v 478 79
v 479 80
v 480 81
v 481 82
v 482 83
v 483 84
v 484 85
v 485 86
v 486 87
v 487 88
v 488 89
v 489 90
v 490 91
v 491 92
v 492 93
v 493 94
v 494 95
v 495 96
v 496 97
v 497 98
v 498 99
v 499 100
v 500 101
v 501 102
v 502 103
v 503 104
v 504 105
v 505 106
v 506 107
v 507 108
v 508 109
v 509 110
v 510 111
v 511 112
v 512 113
v 513 114
v 514 115
v 515 116
v 516 117
e 344 1
e 287 2
e 187 3
e 476 3
e 194 4
e 209 4
e 243 5
e 349 5
e 430 5
e 441 5
e 478 5
e 48 6
e 122 6
e 143 6
e 66 7
e 87 7
e 93 7
e 110 7
e 213 7
e 297 7
e 453 7
e 269 8
e 262 9
e 280 10
e 347 10
e 378 10
e 393 10
e 432 10
e 93 11
e 163 11
e 169 11
e 251 11
e 282 11
e 333 11
e 355 11
e 364 11
e 13 12
e 93 12
e 120 12
e 162 12
e 163 12
e 463 12
e 93 13
e 120 13
e 162 13
e 163 13
e 463 13
e 422 14
e 81 15
e 313 15
e 457 15
e 506 15
e 67 16
e 26 17
e 128 17
e 456 17
e 113 18
e 452 18
e 477 19
e 34 20
e 337 20
e 415 20
e 418 20
e 248 21
e 292 21
e 45 22
e 291 23
e 26 24
e 32 24
e 115 24
e 121 24
e 198 24
e 204 24
e 305 24
e 306 24
e 374 24
e 379 24
e 414 24
e 415 24
e 417 24
e 499 24
e 516 24
e 26 25
e 82 25
e 129 25
e 39 26
e 82 26
e 97 26
e 128 26
e 129 26
e 207 26
e 208 26
e 415 26
e 263 27
e 386 27
e 433 27
e 435 27
e 71 28
e 369 28
e 389 28
e 435 28
e 134 29
e 404 29
e 434 29
e 53 30
e 287 30
e 384 30
e 401 30
e 200 31
e 258 31
e 299 31
e 361 31
e 388 31
e 492 31
e 497 31
e 121 32
e 306 32
e 414 32
e 516 32
e 83 33
e 92 33
e 132 33
e 150 33
e 156 33
e 238 33
e 296 33
e 370 33
e 512 33
e 337 34
e 415 34
e 418 34
e 55 35
e 70 35
e 83 35
e 231 35
e 232 35
e 406 35
e 337 36
e 132 37
e 274 37
e 276 37
e 425 37
e 483 37
e 61 38
e 106 38
e 107 38
e 110 38
e 163 38
e 233 38
e 372 38
e 411 38
e 97 39
e 194 39
e 207 39
e 208 39
e 204 40
e 67 41
e 123 42
e 140 42
e 242 42
e 429 42
e 470 42
e 438 43
e 53 44
e 287 44
e 49 45
e 50 45
e 64 45
e 115 45
e 222 45
e 271 45
e 291 45
e 336 45
e 380 45
e 421 45
e 142 46
e 71 47
e 265 47
e 451 47
e 122 48
e 143 48
e 244 48
e 437 48
e 316 50
e 380 50
e 52 51
e 80 51
e 235 51
e 262 51
e 452 51
e 339 52
e 447 52
e 452 52
e 501 52
e 287 53
e 384 53
e 401 53
e 163 54
e 186 54
e 332 54
e 439 54
e 231 55
e 232 55
e 406 55
e 101 56
e 137 56
e 253 56
e 285 56
e 340 56
e 389 56
e 457 56
e 469 56
e 403 57
e 482 57
e 515 57
e 80 58
e 331 58
e 113 59
e 219 59
e 239 59
e 241 59
e 474 59
e 78 60
e 190 60
e 281 60
e 363 60
e 496 60
e 106 61
e 107 61
e 110 61
e 163 61
e 233 61
e 372 61
e 411 61
e 80 62
e 126 62
e 310 62
e 252 63
e 336 64
e 93 65
e 381 65
e 397 65
e 71 66
e 87 66
e 93 66
e 99 66
e 110 66
e 213 66
e 252 66
e 264 66
e 297 66
e 357 66
e 400 66
e 442 66
e 453 66
e 457 66
e 134 67
e 182 67
e 271 67
e 405 67
e 434 67
e 514 67
e 149 68
e 199 68
e 351 68
e 352 68
e 353 68
e 468 68
e 160 69
e 327 69
e 399 69
e 93 71
e 137 71
e 152 71
e 163 71
e 186 71
e 188 71
e 252 71
e 256 71
e 260 71
e 264 71
e 265 71
e 282 71
e 314 71
e 354 71
e 355 71
e 357 71
e 358 71
e 369 71
e 389 71
e 402 71
e 435 71
e 442 71
e 451 71
e 457 71
e 486 71
e 493 71
e 511 71
e 178 72
e 262 72
e 426 72
e 509 72
e 157 73
e 399 73
e 502 73
e 510 74
e 93 75
e 169 75
e 265 75
e 266 75
e 298 75
e 321 75
e 355 75
e 463 75
e 124 76
e 133 76
e 350 76
e 352 76
e 93 77
e 137 77
e 355 77
e 363 78
e 288 79
e 359 79
e 373 79
e 108 80
e 113 80
e 126 80
e 135 80
e 248 80
e 257 80
e 300 80
e 310 80
e 331 80
e 408 80
e 489 80
e 498 80
e 313 81
e 457 81
e 462 81
e 506 81
e 129 82
e 92 83
e 132 83
e 150 83
e 156 83
e 238 83
e 296 83
e 310 83
e 370 83
e 512 83
e 94 84
e 187 84
e 283 84
e 299 84
e 317 84
e 337 84
e 424 84
e 503 84
e 144 85
e 181 85
e 185 85
e 212 85
e 436 85
e 98 86
e 177 86
e 449 86
e 93 87
e 110 87
e 213 87
e 297 87
e 453 87
e 114 88
e 323 88
e 409 88
e 435 88
e 471 88
e 131 89
e 214 89
e 488 89
e 491 89
e 149 90
e 335 90
e 287 91
e 132 92
e 150 92
e 156 92
e 190 92
e 238 92
e 296 92
e 370 92
e 431 92
e 512 92
e 110 93
e 120 93
e 137 93
e 147 93
e 162 93
e 163 93
e 165 93
e 169 93
e 186 93
e 188 93
e 213 93
e 252 93
e 256 93
e 261 93
e 265 93
e 266 93
e 282 93
e 290 93
e 297 93
e 298 93
e 314 93
e 318 93
e 321 93
e 333 93
e 342 93
e 354 93
e 355 93
e 357 93
e 377 93
e 381 93
e 397 93
e 410 93
e 423 93
e 451 93
e 453 93
e 457 93
e 463 93
e 475 93
e 493 93
e 511 93
e 187 94
e 299 94
e 503 94
e 160 95
e 247 95
e 269 95
e 399 95
e 440 95
e 502 95
e 466 96
e 104 97
e 159 97
e 207 97
e 208 97
e 240 97
e 177 98
e 449 98
e 457 99
e 328 100
e 137 101
e 253 101
e 285 101
e 340 101
e 383 101
e 389 101
e 457 101
e 469 101
e 310 102
e 197 103
e 217 103
e 301 103
e 312 103
e 360 103
e 240 104
e 402 105
e 477 105
e 107 106
e 110 106
e 163 106
e 233 106
e 372 106
e 411 106
e 110 107
e 163 107
e 233 107
e 362 107
e 372 107
e 411 107
e 300 108
e 310 108
e 408 108
e 166 109
e 192 109
e 228 109
e 387 109
e 163 110
e 213 110
e 233 110
e 297 110
e 372 110
e 411 110
e 453 110
e 269 111
e 286 111
e 338 111
e 446 111
e 485 111
e 141 112
e 221 112
e 242 112
e 464 112
e 116 113
e 117 113
e 131 113
e 139 113
e 145 113
e 146 113
e 155 113
e 219 113
e 234 113
e 239 113
e 241 113
e 279 113
e 284 113
e 295 113
e 346 113
e 368 113
e 419 113
e 441 113
e 452 113
e 466 113
e 474 113
e 484 113
e 323 114
e 409 114
e 271 115
e 291 115
e 356 115
e 364 115
e 374 115
e 421 115
e 445 115
e 450 115
e 117 116
e 158 118
e 289 118
e 479 118
e 486 118
e 167 119
e 285 119
e 162 120
e 163 120
e 463 120
e 153 121
e 169 121
e 170 121
e 186 121
e 196 121
e 204 121
e 216 121
e 223 121
e 229 121
e 250 121
e 257 121
e 294 121
e 306 121
e 336 121
e 348 121
e 396 121
e 403 121
e 414 121
e 448 121
e 504 121
e 505 121
e 516 121
e 143 122
e 140 123
e 242 123
e 429 123
e 133 124
e 350 124
e 352 124
e 364 125
e 252 127
e 268 127
e 215 128
e 456 128
e 140 130
e 460 130
e 461 130
e 224 131
e 491 131
e 150 132
e 156 132
e 238 132
e 274 132
e 276 132
e 296 132
e 370 132
e 425 132
e 483 132
e 512 132
e 274 133
e 325 133
e 350 133
e 352 133
e 494 133
e 182 134
e 394 134
e 434 134
e 514 134
e 257 135
e 184 136
e 163 137
e 253 137
e 260 137
e 285 137
e 340 137
e 355 137
e 389 137
e 457 137
e 469 137
e 399 138
e 368 139
e 242 140
e 245 140
e 300 140
e 429 140
e 460 140
e 461 140
e 221 141
e 242 141
e 326 141
e 464 141
e 169 142
e 307 142
e 309 142
e 328 142
e 230 143
e 349 143
e 391 143
e 438 143
e 181 144
e 436 144
e 155 145
e 279 145
e 419 145
e 474 146
e 261 147
e 177 148
e 291 148
e 199 149
e 335 149
e 351 149
e 352 149
e 353 149
e 468 149
e 156 150
e 238 150
e 296 150
e 370 150
e 512 150
e 183 151
e 269 151
e 306 151
e 315 151
e 357 152
e 389 152
e 486 152
e 161 154
e 182 154
e 279 155
e 419 155
e 238 156
e 296 156
e 370 156
e 512 156
e 399 157
e 502 157
e 289 158
e 479 158
e 486 158
e 327 160
e 399 160
e 440 160
e 502 160
e 182 161
e 163 162
e 463 162
e 169 163
e 233 163
e 260 163
e 267 163
e 302 163
e 304 163
e 332 163
e 333 163
e 355 163
e 372 163
e 389 163
e 411 163
e 463 163
e 165 164
e 195 164
e 252 164
e 277 164
e 278 164
e 375 164
e 252 165
e 265 165
e 277 165
e 278 165
e 290 165
e 375 165
e 423 165
e 192 166
e 228 166
e 387 166
e 285 167
e 344 168
e 370 168
e 229 169
e 257 169
e 265 169
e 266 169
e 298 169
e 321 169
e 336 169
e 355 169
e 294 170
e 182 171
e 206 172
e 218 172
e 495 172
e 507 172
e 508 172
e 248 173
e 292 173
e 189 174
e 403 174
e 218 175
e 252 176
e 291 177
e 449 177
e 262 178
e 426 178
e 509 178
e 373 179
e 382 179
e 397 179
e 475 179
e 324 180
e 436 181
e 308 182
e 434 182
e 514 182
e 269 183
e 315 183
e 455 184
e 456 184
e 212 185
e 188 186
e 256 186
e 294 186
e 314 186
e 354 186
e 355 186
e 357 186
e 377 186
e 397 186
e 457 186
e 493 186
e 511 186
e 204 187
e 299 187
e 317 187
e 424 187
e 476 187
e 503 187
e 256 188
e 314 188
e 354 188
e 357 188
e 457 188
e 493 188
e 511 188
e 403 189
e 431 190
e 496 190
e 456 191
e 228 192
e 364 192
e 387 192
e 436 192
e 385 193
e 209 194
e 294 196
e 217 197
e 301 197
e 312 197
e 360 197
e 306 198
e 417 198
e 351 199
e 352 199
e 353 199
e 468 199
e 210 200
e 211 200
e 258 200
e 299 200
e 361 200
e 388 200
e 492 200
e 497 200
e 294 201
e 415 202
e 516 203
e 379 204
e 385 204
e 392 204
e 499 204
e 516 204
e 218 205
e 457 205
e 507 206
e 508 206
e 208 207
e 399 207
e 211 210
e 297 213
e 453 213
e 341 214
e 488 214
e 456 215
e 272 217
e 301 217
e 312 217
e 360 217
e 458 217
e 457 218
e 495 218
e 239 219
e 241 219
e 474 219
e 221 220
e 420 220
e 242 221
e 326 221
e 420 221
e 464 221
e 513 221
e 259 225
e 287 225
e 307 225
e 365 225
e 390 225
e 287 226
e 503 227
e 387 228
e 257 229
e 336 229
e 232 231
e 406 231
e 407 231
e 406 232
e 237 233
e 372 233
e 411 233
e 295 234
e 262 235
e 357 236
e 383 236
e 372 237
e 296 238
e 370 238
e 512 238
e 241 239
e 474 239
e 474 241
e 429 242
e 464 242
e 349 243
e 430 243
e 441 243
e 478 243
e 437 244
e 336 246
e 376 247
e 399 247
e 273 248
e 292 248
e 395 248
e 252 249
e 334 249
e 396 250
e 364 251
e 258 252
e 264 252
e 268 252
e 277 252
e 278 252
e 319 252
e 320 252
e 321 252
e 330 252
e 334 252
e 357 252
e 375 252
e 380 252
e 403 252
e 442 252
e 475 252
e 481 252
e 285 253
e 340 253
e 389 253
e 457 253
e 469 253
e 392 254
e 282 255
e 345 255
e 357 255
e 314 256
e 354 256
e 357 256
e 389 256
e 457 256
e 493 256
e 511 256
e 336 257
e 427 257
e 435 257
e 299 258
e 361 258
e 388 258
e 412 258
e 467 258
e 492 258
e 497 258
e 287 259
e 307 259
e 365 259
e 390 259
e 444 259
e 355 260
e 426 262
e 509 262
e 357 264
e 402 264
e 442 264
e 266 265
e 290 265
e 298 265
e 321 265
e 355 265
e 389 265
e 423 265
e 451 265
e 298 266
e 321 266
e 355 266
e 302 267
e 304 267
e 333 267
e 315 269
e 399 269
e 473 270
e 502 270
e 291 271
e 380 271
e 421 271
e 458 272
e 498 272
e 276 274
e 350 274
e 352 274
e 425 274
e 483 274
e 441 275
e 425 276
e 483 276
e 278 277
e 375 277
e 375 278
e 419 279
e 347 280
e 378 280
e 393 280
e 432 280
e 333 282
e 345 282
e 357 282
e 371 282
e 337 283
e 321 285
e 340 285
e 389 285
e 416 285
e 457 285
e 469 285
e 338 286
e 307 287
e 365 287
e 384 287
e 390 287
e 401 287
e 500 287
e 359 288
e 373 288
e 479 289
e 486 289
e 423 290
e 421 291
e 300 293
e 310 293
e 504 294
e 370 296
e 512 296
e 453 297
e 321 298
e 355 298
e 463 298
e 361 299
e 388 299
e 492 299
e 497 299
e 503 299
e 310 300
e 311 300
e 408 300
e 480 300
e 312 301
e 360 301
e 304 302
e 333 302
e 382 303
e 454 303
e 333 304
e 414 306
e 417 306
e 443 306
e 456 306
e 516 306
e 365 307
e 390 307
e 408 310
e 498 310
e 360 312
e 457 313
e 506 313
e 354 314
e 357 314
e 457 314
e 493 314
e 511 314
e 463 318
e 320 319
e 321 319
e 481 319
e 321 320
e 481 320
e 355 321
e 416 321
e 481 321
e 389 322
e 409 323
e 455 324
e 472 324
e 487 324
e 399 327
e 399 329
e 348 336
e 415 337
e 418 337
e 447 339
e 501 339
e 389 340
e 457 340
e 469 340
e 422 343
e 357 345
e 441 346
e 484 346
e 378 347
e 393 347
e 432 347
e 430 349
e 438 349
e 441 349
e 478 349
e 352 350
e 352 351
e 353 351
e 468 351
e 353 352
e 465 352
e 468 352
e 468 353
e 357 354
e 389 354
e 457 354
e 493 354
e 511 354
e 358 355
e 377 355
e 445 356
e 450 356
e 371 357
e 383 357
e 389 357
e 442 357
e 457 357
e 486 357
e 493 357
e 511 357
e 373 359
e 388 361
e 492 361
e 497 361
e 436 364
e 390 365
e 476 366
e 490 366
e 433 367
e 389 369
e 435 369
e 512 370
e 411 372
e 382 373
e 397 373
e 475 373
e 399 376
e 393 378
e 432 378
e 470 378
e 499 379
e 403 380
e 397 381
e 397 382
e 454 382
e 475 382
e 401 384
e 516 385
e 433 386
e 492 388
e 497 388
e 435 389
e 457 389
e 469 389
e 486 389
e 432 393
e 434 394
e 475 397
e 399 398
e 440 399
e 466 399
e 502 399
e 477 402
e 448 403
e 515 403
e 407 406
e 467 412
e 435 413
e 516 414
e 418 415
e 510 422
e 515 422
e 483 425
e 509 426
e 435 427
e 486 428
e 441 430
e 478 430
e 514 434
e 502 440
e 478 441
e 484 441
e 450 445
e 485 446
e 501 447
e 456 455
e 487 455
e 469 457
e 493 457
e 506 457
e 511 457
e 477 459
e 461 460
e 502 473
e 490 476
e 486 479
e 497 492
e 511 493
e 508 507
